4
2
7
8
28
49
55
26
19
24
15
57
63
66
22
59
38
31
69
35
70
29
13
23
36
1
16
47
37
58
50
52
60
12
21
34
33
62
54
48
67
11
64
65
56
51
10
5
53
6
41
43
17
9
40
61
39
25
45
46
27
68
44
30
20
14
3
32
42
18
4
